
  22   10
  10   10   10   10   10   10   10   10   10   10

   0   0   0   0   0   0   0   0   0   0   0   4 2 7 9 21 
   2   0   0  10   0   0   0   0   0   0   0   2 14 3 
   8  10   0   0   0   0   0   0   0   0   0   2 20 4 
  10   0   0   0   0   0  10   0   0   0   0   4 19 18 12 5 
   2   0  10   0   0   0   0   0   0   0   0   2 17 6 
   6   0   0   0  10   0   0   0   0   0   0   1 8 
   1   0   0  10   0   0   0   0   0   0   0   4 17 16 14 13 
   4   0   0   0   0   0   0   0   0  10   0   2 16 10 
   7  10   0   0   0   0   0   0   0   0   0   2 17 11 
   1   0   0   0   0   0   0   0   0  10   0   1 11 
  10   0   0   0   0  10   0   0   0   0   0   1 13 
   3  10   0   0   0   0   0   0   0   0   0   1 13 
   3   0   0   0   0   0   0   0   0  10   0   1 15 
   4   0   0   0   0   0   0   0   0   0  10   1 15 
   5   0   0   0   0   0   0   0   0  10   0   1 22
  10  10   0   0   0   0   0   0   0   0   0   1 22
  10   0  10   0   0   0   0   0   0   0   0   1 22
   7   0   0  10   0   0   0   0   0   0   0   1 22
   9   0   0   0   0   0   0   0   0  10   0   1 22
   5  10   0   0   0   0   0   0   0   0   0   1 22
   8   0   0   0   0   0   0   0   0   0  10   1 22
   0   0   0   0   0   0   0   0   0   0   0   0 
